Minimize
  obj: x0 + x1 + x2 + x3 + x4 + x5

Subject To
  c0: x1 = 11
  c1: x0 + x3 + x5 = 32
  c2: x0 + x5 = 25
  c3: x0 + x2 + x4 + x5 = 35
  c4: x0 + x3 = 19
  c5: x4 + x5 = 13
  c6: x1 = 11
  c7: x0 + x2 + x5 = 35

Bounds
  x0 >= 0
  x1 >= 0
  x2 >= 0
  x3 >= 0
  x4 >= 0
  x5 >= 0

Generals
  x0 x1 x2 x3 x4 x5

End
